p cnf 15 30
10 -9 12 0
-14 6 -7 0
-7 -12 4 0
7 14 -11 0
-6 -7 -14 0
14 6 10 0
-14 -6 11 0
-5 -13 -4 0
10 -13 -1 0
-1 11 15 0
-8 12 -13 0
-6 -7 -10 0
9 -12 -11 0
-3 -9 14 0
-8 -12 14 0
-9 -8 15 0
-9 13 -10 0
-1 3 -6 0
-14 5 -1 0
15 -1 7 0
8 6 -7 0
10 5 12 0
7 -9 -5 0
-7 -10 -4 0
15 -3 12 0
1 9 -10 0
9 6 -13 0
15 -8 10 0
-14 5 -13 0
8 -12 1 0
